sing20160317.00
TTAA 67001 48698
99009 26627 11002 00103 26028 03007 92788 22256 01016
85521 20265 01010 70167 11060 03003 50590 05163 09530
40763 13565 11529 30975 29756 15517 25103 39563 14514
20251 51958 16512 15432 66558 10535 10667 83150 09020
88999
77999=
TTCC 67002 48698
70867 77163 22021 50060 76165 21010 30368 57780 20516
20626 55780 24015
88960 84750 07024
77999=
TTDD 6700/ 48698
11960 84750 22665 75165 33574 79561 44512 77764 55420
68174 66381 69373 77363 67376 88355 62779 99283 54383
11233 57380 22198 55581 33174 49384 44126 53982
21212 11949 06525 22886 07042 33842 08516 44831 08010
55817 36004 66796 28010 77742 22019 88714 21523 99674
26026 11631 27536 22581 29028 33555 27021 44521 27010
55488 18010 66458 12004 77438 10010 88402 10029 99387
08029 11376 06528 22361 08524 33341 08518 44332 10516
55328 12514 66322 15516 77308 17015 88301 20515 99273
25520 11258 27524 22239 25029 33199 23515 44170 26532
55158 26539 66140 27033 77126 29532=
